NAME: tsp35_29
COMMENT: 35-tsp problem (Padberg/Rinaldi)
TYPE: TSP
DIMENSION: 35
EDGE_WEIGHT_TYPE : EUC_2D
NODE_COORD_SECTION
1 20 8
2 29 9
3 35 8
4 11 0
5 17 22
6 35 24
7 1 19
8 14 36
9 35 4
10 36 40
11 23 40
12 36 22
13 36 4
14 11 8
15 20 26
16 10 7
17 33 30
18 21 36
19 10 24
20 3 12
21 7 6
22 1 24
23 18 1
24 27 13
25 29 25
26 5 5
27 39 32
28 16 0
29 38 30
30 26 11
31 28 38
32 34 23
33 10 34
34 34 10
35 2 17
